# Objective value = 31
WA1n 0
WA1p 0
WA2n 1
WA2p 0
WB1n 0
WB1p 0
WB2n 1
WB2p 0
WC1n 0
WC1p 0
WC2n 0
WC2p 1
WD1n 1
WD1p 0
WD2n 1
WD2p 0
WE1n 1
WE1p 0
WE2n 1
WE2p 0
WF1n 3
WF1p 0
WF2n 1
WF2p 0
WG1n 5
WG1p 0
WH1n 5
WH1p 0
WT1n 4
WT1p 0
100 104
a 1
b 1
c 1
d 1
e 1
f 1
g 1
h 1
i 1
j 1
k 1
l 1
m 0
n 0
o 1
